<number of tasks>
50

<cycle time>
1000

<order strength>
0.205


<task times>
1 419
2 431
3 610
4 476
5 269
6 507
7 429
8 506
9 494
10 479
11 588
12 443
13 362
14 551
15 450
16 691
17 432
18 447
19 344
20 372
21 219
22 493
23 626
24 371
25 386
26 520
27 413
28 485
29 315
30 612
31 505
32 494
33 608
34 353
35 292
36 498
37 736
38 578
39 483
40 550
41 248
42 641
43 525
44 515
45 525
46 325
47 586
48 568
49 568
50 305

<precedence relations>
1,31
2,20
3,7
5,9
5,10
6,8
7,11
7,12
9,13
9,15
10,14
11,16
12,17
13,19
14,18
14,19
14,20
15,21
16,27
17,29
18,26
18,35
19,28
19,30
21,22
21,23
21,24
21,25
22,31
23,31
24,31
25,31
26,32
27,35
28,33
29,34
30,36
30,37
31,38
31,39
31,40
31,41
31,42
32,44
33,45
34,43
35,46
39,47
41,49
41,50
43,47
44,48

<end>
